Route #1: 75 68 6 1 63 16 51 17 40 12
Route #2: 58 72 39 9 25 55 18 50 32 44 3
Route #3: 24 49 23 56 41 43 42 64 22 62
Route #4: 33 73 2 74 21 47 48 30
Route #5: 28 61 69 36 71 60 70 20 37 5 15 57
Route #6: 13 54 19 14 59 66 65 31
Route #7: 7 8 35 53 11 38 10 26
Route #8: 4 45 29 27 52 46 34 67
Cost 798